*SPEF "1481-1998"
*DESIGN "vending_machine"
*DATE "Sat Aug 15 10:32:52 2026"
*VENDOR "Synopsys, Inc."
*PROGRAM "icc2 /home/vlsi/SynopsysTools/icc2/W-2024.09-SP1/linux64/nwtn/bin/icc2_exec"
*VERSION "W-2024.09-SP1 Oct 17, 2024"
*DESIGN_FLOW "ICC2 SPEF DR"
*DIVIDER /
*DELIMITER :
*BUS_DELIMITER [ ]
*T_UNIT 1 NS
*C_UNIT 1 FF
*R_UNIT 1 OHM
*L_UNIT 1 HENRY

// XY_UNIT 1 UM
// PARASITIC_TECH tlu_max at 125.000 degree

*NAME_MAP
*1 Clock
*2 rst
*3 in[1]
*4 in[0]
*5 out
*6 change[1]
*7 change[0]
*8 VDD
*9 VSS
*10 U18
*11 U19
*12 U20
*13 U21
*14 U22
*15 U23
*16 U24
*17 U25
*18 U26
*19 U27
*20 U28
*21 U29
*22 U30
*23 U31
*24 U32
*25 U33
*26 c_state_reg[0]
*27 c_state_reg[1]
*28 change_reg[1]
*29 change_reg[0]
*30 out_reg
*31 xofiller!SHFILL1_RVT!x50000y50000
*32 xofiller!SHFILL1_RVT!x60640y50000
*33 xofiller!SHFILL1_RVT!x62160y50000
*34 xofiller!SHFILL1_RVT!x63680y50000
*35 xofiller!SHFILL1_RVT!x65200y50000
*36 xofiller!SHFILL1_RVT!x74320y50000
*37 xofiller!SHFILL1_RVT!x75840y50000
*38 xofiller!SHFILL1_RVT!x77360y50000
*39 xofiller!SHFILL1_RVT!x78880y50000
*40 xofiller!SHFILL1_RVT!x80400y50000
*41 xofiller!SHFILL1_RVT!x95600y50000
*42 xofiller!SHFILL1_RVT!x97120y50000
*43 xofiller!SHFILL1_RVT!x98640y50000
*44 xofiller!SHFILL1_RVT!x100160y50000
*45 xofiller!SHFILL1_RVT!x101680y50000
*46 xofiller!SHFILL1_RVT!x103200y50000
*47 xofiller!SHFILL1_RVT!x50000y66720
*48 xofiller!SHFILL1_RVT!x51520y66720
*49 xofiller!SHFILL1_RVT!x53040y66720
*50 xofiller!SHFILL1_RVT!x115360y66720
*51 xofiller!SHFILL1_RVT!x116880y66720
*52 xofiller!SHFILL1_RVT!x118400y66720
*53 xofiller!SHFILL1_RVT!x119920y66720
*54 xofiller!SHFILL1_RVT!x121440y66720
*55 xofiller!SHFILL1_RVT!x122960y66720
*56 xofiller!SHFILL1_RVT!x124480y66720
*57 xofiller!SHFILL1_RVT!x126000y66720
*58 xofiller!SHFILL1_RVT!x127520y66720
*59 xofiller!SHFILL1_RVT!x129040y66720
*60 xofiller!SHFILL1_RVT!x138160y66720
*61 xofiller!SHFILL1_RVT!x139680y66720
*62 xofiller!SHFILL1_RVT!x141200y66720
*63 xofiller!SHFILL1_RVT!x142720y66720
*64 xofiller!SHFILL1_RVT!x144240y66720
*65 xofiller!SHFILL1_RVT!x145760y66720
*66 xofiller!SHFILL1_RVT!x57600y83440
*67 xofiller!SHFILL1_RVT!x59120y83440
*68 xofiller!SHFILL1_RVT!x60640y83440
*69 xofiller!SHFILL1_RVT!x97120y83440
*70 xofiller!SHFILL1_RVT!x98640y83440
*71 xofiller!SHFILL1_RVT!x100160y83440
*72 xofiller!SHFILL1_RVT!x101680y83440
*73 xofiller!SHFILL1_RVT!x103200y83440
*74 xofiller!SHFILL1_RVT!x50000y100160
*75 xofiller!SHFILL1_RVT!x63680y100160
*76 xofiller!SHFILL1_RVT!x65200y100160
*77 xofiller!SHFILL1_RVT!x66720y100160
*78 xofiller!SHFILL1_RVT!x68240y100160
*79 xofiller!SHFILL1_RVT!x69760y100160
*80 xofiller!SHFILL1_RVT!x89520y100160
*81 xofiller!SHFILL1_RVT!x91040y100160
*82 xofiller!SHFILL1_RVT!x92560y100160
*83 xofiller!SHFILL1_RVT!x57600y116880
*84 xofiller!SHFILL1_RVT!x83440y116880
*85 xofiller!SHFILL1_RVT!x127520y116880
*86 xofiller!SHFILL1_RVT!x129040y116880
*87 xofiller!SHFILL1_RVT!x145760y116880
*88 N11
*89 N12
*90 N13
*91 N14
*92 N15
*93 n11
*94 n12
*95 n13
*96 n14
*97 n15
*98 n16
*99 n17
*100 n18
*101 n19
*102 n20
*103 n21
*104 n22
*105 c_state[1]
*106 c_state[0]

*PORTS

*1 I *C 14.728 0.143
*2 I *C 17.312 0.143
*3 I *C 0.143 8.040
*4 I *C 7.736 0.143
*5 O *C 12.600 0.143
*6 O *C 0.143 10.168
*7 O *C 5.608 0.143
*8 I *C 9.864 9.180
*9 I *C 9.864 9.180

*D_NET *1 1.602409 //LENGTH 22.423 LUMPCC 0 DR

*CONN
*P *1 I *L 0 *C 14.728 0.258
*I *28:CLK I *L 0.698576 *C 11.536 5.152
*I *26:CLK I *L 0.698576 *C 8.344 8.192
*I *27:CLK I *L 0.698576 *C 11.536 8.496
*I *30:CLK I *L 0.698576 *C 10.472 11.536
*I *29:CLK I *L 0.698576 *C 9.560 11.840
*N *1:6 *C 14.546 0.440
*N *1:7 *C 9.560 11.828
*N *1:8 *C 9.560 11.688
*N *1:9 *C 9.574 11.688
*N *1:10 *C 10.472 11.688
*N *1:11 *C 10.472 11.354
*N *1:12 *C 10.472 11.524
*N *1:13 *C 10.472 11.537
*N *1:14 *C 10.472 11.523
*N *1:15 *C 11.536 8.484
*N *1:16 *C 11.536 8.344
*N *1:17 *C 11.523 8.344
*N *1:18 *C 8.344 8.180
*N *1:19 *C 8.344 8.040
*N *1:20 *C 8.357 8.040
*N *1:21 *C 10.472 8.040
*N *1:22 *C 10.472 8.344
*N *1:23 *C 10.472 8.344
*N *1:24 *C 10.472 5.014
*N *1:25 *C 10.486 5.000
*N *1:26 *C 11.536 5.139
*N *1:27 *C 11.536 5.000
*N *1:28 *C 11.536 5.000
*N *1:29 *C 14.715 5.000
*N *1:30 *C 14.728 4.987
*N *1:31 *C 14.728 0.454
*N *1:32 *C 14.716 0.440
*N *1:33 *C 14.728 0.427

*CAP
0 *1 0.01030369
1 *28:CLK 0.001
2 *26:CLK 0.001
3 *27:CLK 0.001
4 *30:CLK 0.001
5 *29:CLK 0.001
6 *1:6 0.009616068
7 *1:7 0.008182912
8 *1:8 0.009615591
9 *1:9 0.0491831
10 *1:10 0.05857667
11 *1:11 0.01404872
12 *1:12 0.0078716
13 *1:13 0.002277463
14 *1:14 0.1070683
15 *1:15 0.009830615
16 *1:16 0.01126329
17 *1:17 0.04420471
18 *1:18 0.01079562
19 *1:19 0.0122283
20 *1:20 0.09401214
21 *1:21 0.1093024
22 *1:22 0.05712335
23 *1:23 0.2331335
24 *1:24 0.1236935
25 *1:25 0.03845836
26 *1:26 0.008449071
27 *1:27 0.009881749
28 *1:28 0.1550803
29 *1:29 0.1142508
30 *1:30 0.1380764
31 *1:31 0.1380764
32 *1:32 0.004872178
33 *1:33 0.007931473

*RES
0 *1 *1:33 0.3008929
1 *1:29 *1:28 5.675893
2 *1:30 *1:29 0.5
3 *1:32 *1:31 0.5
4 *1:32 *1:6 0.2825
5 *1:31 *1:30 8.094644
6 *1:33 *1:32 0.5
7 *1:27 *1:26 0.2325
8 *1:28 *1:27 0.5
9 *1:28 *1:25 1.875893
10 *1:26 *28:CLK 1
11 *1:16 *1:15 0.2325
12 *1:17 *1:16 0.5
13 *1:15 *27:CLK 1
14 *1:12 *30:CLK 1
15 *1:12 *1:11 0.2825
16 *1:13 *1:12 0.5
17 *1:13 *1:10 0.2696429
18 *1:14 *1:13 0.5
19 *1:22 *1:21 0.5428572
20 *1:22 *1:17 1.875893
21 *1:23 *1:22 0.5
22 *1:23 *1:14 5.675894
23 *1:25 *1:24 0.5
24 *1:24 *1:23 5.947322
25 *1:8 *1:7 0.2325
26 *1:9 *1:8 0.5
27 *1:7 *29:CLK 1
28 *1:19 *1:18 0.2325
29 *1:20 *1:19 0.5
30 *1:18 *26:CLK 1
31 *1:21 *1:20 3.775893
32 *1:10 *1:9 1.604464

*END

*D_NET *5 1.308776 //LENGTH 12.009 LUMPCC 0 DR

*CONN
*I *30:Q O *L 0 *C 13.512 11.080
*P *5 O *L 0.02 *C 12.600 0.258
*N *5:2 *C 12.600 10.459
*N *5:3 *C 12.614 10.472
*N *5:4 *C 13.498 10.472
*N *5:5 *C 13.512 10.486
*N *5:6 *C 13.512 11.067

*CAP
0 *30:Q 0.001
1 *5 0.5768855
2 *5:2 0.5745133
3 *5:3 0.03677007
4 *5:4 0.03677007
5 *5:5 0.04213461
6 *5:6 0.04070193

*RES
0 *30:Q *5:6 1
1 *5:6 *5:5 1.0375
2 *5:5 *5:4 0.5
3 *5:4 *5:3 1.580357
4 *5:2 *5 18.21518
5 *5:3 *5:2 0.5

*END

*D_NET *6 1.372502 //LENGTH 19.395 LUMPCC 0 DR

*CONN
*I *28:Q O *L 0 *C 14.576 5.608
*P *6 O *L 0.02 *C 0.258 10.168
*N *6:2 *C 14.576 5.426
*N *6:3 *C 12.283 10.168
*N *6:4 *C 12.296 10.155
*N *6:5 *C 12.296 5.622
*N *6:6 *C 12.309 5.608
*N *6:7 *C 14.562 5.608
*N *6:8 *C 14.576 5.596

*CAP
0 *28:Q 0.001
1 *6 0.4401639
2 *6:2 0.01044447
3 *6:3 0.4377922
4 *6:4 0.1582354
5 *6:5 0.1582354
6 *6:6 0.08118168
7 *6:7 0.08118114
8 *6:8 0.004267354

*RES
0 *28:Q *6:8 1
1 *6:8 *6:7 0.5
2 *6:8 *6:2 0.2825
3 *6:7 *6:6 4.023214
4 *6:6 *6:5 0.5
5 *6:5 *6:4 8.094644
6 *6:3 *6 21.47232
7 *6:4 *6:3 0.5

*END

*D_NET *7 1.793428 //LENGTH 19.336 LUMPCC 0 DR

*CONN
*I *29:Q O *L 0 *C 12.600 12.296
*P *7 O *L 0.02 *C 5.608 0.258
*N *7:2 *C 5.608 1.643
*N *7:3 *C 5.622 1.656
*N *7:4 *C 12.434 1.656
*N *7:5 *C 12.448 1.669
*N *7:6 *C 12.448 12.296
*N *7:7 *C 12.599 12.296

*CAP
0 *29:Q 0.001
1 *7 0.05007255
2 *7:2 0.04770033
3 *7:3 0.212642
4 *7:4 0.212642
5 *7:5 0.6267387
6 *7:6 0.6377742
7 *7:7 0.004858401

*RES
0 *29:Q *7:7 1
1 *7:7 *7:6 0.2696429
2 *7:5 *7:4 0.5
3 *7:4 *7:3 12.16607
4 *7:2 *7 2.472321
5 *7:3 *7:2 0.5
6 *7:6 *7:5 18.97589

*END

*D_NET *88 0.2266649 //LENGTH 2.438 LUMPCC 0 DR

*CONN
*I *23:Y O *L 0 *C 9.256 6.520
*I *26:RSTB I *L 0.751197 *C 7.584 6.824
*N *88:2 *C 9.256 6.338
*N *88:3 *C 7.584 6.811
*N *88:4 *C 7.584 6.534
*N *88:5 *C 7.598 6.520
*N *88:6 *C 9.242 6.520
*N *88:7 *C 9.256 6.508

*CAP
0 *23:Y 0.001
1 *26:RSTB 0.001
2 *88:2 0.01499704
3 *88:3 0.01757163
4 *88:4 0.01900431
5 *88:5 0.0816976
6 *88:6 0.0816976
7 *88:7 0.009696773

*RES
0 *23:Y *88:7 1
1 *88:3 *26:RSTB 1
2 *88:4 *88:3 0.4946429
3 *88:5 *88:4 0.5
4 *88:7 *88:6 0.5
5 *88:7 *88:2 0.2825
6 *88:6 *88:5 2.9375

*END

*D_NET *89 0.8349894 //LENGTH 8.355 LUMPCC 0 DR

*CONN
*I *25:Y O *L 0 *C 5.630 7.653
*I *27:RSTB I *L 0.751197 *C 10.776 9.854
*N *89:2 *C 10.928 9.682
*N *89:3 *C 10.928 9.864
*N *89:4 *C 10.928 9.851
*N *89:5 *C 10.915 9.864
*N *89:6 *C 5.608 9.864
*N *89:7 *C 5.608 8.953
*N *89:8 *C 5.608 8.939
*N *89:9 *C 5.608 7.598

*CAP
0 *25:Y 0.001
1 *27:RSTB 0.01527606
2 *89:2 0.01787775
3 *89:3 0.02284308
4 *89:4 0.01343014
5 *89:5 0.2325616
6 *89:6 0.2705194
7 *89:7 0.03321335
8 *89:8 0.1148504
9 *89:9 0.1134177

*RES
0 *25:Y *89:9 1
1 *89:3 *27:RSTB 0.02824427
2 *89:4 *89:3 1
3 *89:4 *89:2 0.2825
4 *89:5 *89:4 0.5
5 *89:8 *89:7 0.5
6 *89:7 *89:6 1.626786
7 *89:9 *89:8 2.394643
8 *89:6 *89:5 9.475894

*END

*D_NET *90 0.07339496 //LENGTH 0.901 LUMPCC 0 DR

*CONN
*I *21:Y O *L 0 *C 9.560 9.560
*I *30:RSTB I *L 0.751197 *C 9.712 10.168
*N *90:2 *C 9.712 10.155
*N *90:3 *C 9.712 9.560
*N *90:4 *C 9.561 9.560

*CAP
0 *21:Y 0.001
1 *30:RSTB 0.001
2 *90:2 0.02731209
3 *90:3 0.03950238
4 *90:4 0.004580493

*RES
0 *21:Y *90:4 1
1 *90:2 *30:RSTB 1
2 *90:4 *90:3 0.2696429
3 *90:3 *90:2 1.061607

*END

*D_NET *92 0.8161131 //LENGTH 9.430 LUMPCC 0 DR

*CONN
*I *19:Y O *L 0 *C 8.192 12.904
*I *28:RSTB I *L 0.751197 *C 10.776 6.520
*N *92:2 *C 8.192 12.722
*N *92:3 *C 10.776 6.534
*N *92:4 *C 10.776 12.891
*N *92:5 *C 10.763 12.904
*N *92:6 *C 8.206 12.904
*N *92:7 *C 8.192 12.892

*CAP
0 *19:Y 0.001
1 *28:RSTB 0.001
2 *92:2 0.01269554
3 *92:3 0.3110994
4 *92:4 0.312532
5 *92:5 0.08563381
6 *92:6 0.08563381
7 *92:7 0.006518419

*RES
0 *19:Y *92:7 1
1 *92:3 *28:RSTB 1
2 *92:4 *92:3 11.35178
3 *92:5 *92:4 0.5
4 *92:7 *92:6 0.5
5 *92:7 *92:2 0.2825
6 *92:6 *92:5 4.566072

*END

*D_NET *95 0.4088987 //LENGTH 4.413 LUMPCC 0 DR

*CONN
*I *15:Y O *L 0 *C 6.216 12.448
*I *20:A I *L 0.582888 *C 5.304 12.600
*I *19:A1 I *L 0.582918 *C 7.127 12.600
*I *18:A2 I *L 0.573758 *C 7.584 11.536
*N *95:4 *C 7.584 11.550
*N *95:5 *C 7.584 12.587
*N *95:6 *C 7.571 12.600
*N *95:7 *C 7.066 12.600
*N *95:8 *C 7.066 12.600
*N *95:9 *C 7.128 12.600
*N *95:10 *C 7.128 12.600
*N *95:11 *C 5.304 12.418
*N *95:12 *C 5.304 12.588
*N *95:13 *C 5.317 12.600
*N *95:14 *C 6.216 12.600
*N *95:15 *C 6.216 12.588
*N *95:16 *C 6.216 12.448

*CAP
0 *15:Y 0.001
1 *20:A 0.001
2 *19:A1 0.01406078
3 *18:A2 0.001
4 *95:4 0.06903167
5 *95:5 0.07046435
6 *95:6 0.01901257
7 *95:7 0.007834585
8 *95:8 0.01019233
9 *95:9 0.001
10 *95:10 0.05660415
11 *95:11 0.0127533
12 *95:12 0.006576188
13 *95:13 0.03507584
14 *95:14 0.07266742
15 *95:15 0.01602908
16 *95:16 0.0145964

*RES
0 *15:Y *95:16 1
1 *95:5 *95:4 1.851786
2 *95:6 *95:5 0.5
3 *95:4 *18:A2 1
4 *95:9 *95:8 0.05636364
5 *95:10 *95:9 0.5
6 *95:10 *95:6 0.7901786
7 *95:7 *19:A1 0.1916667
8 *95:8 *95:7 0.5
9 *95:15 *95:14 0.5
10 *95:14 *95:13 1.604464
11 *95:14 *95:10 1.628572
12 *95:16 *95:15 0.2325
13 *95:12 *20:A 1
14 *95:12 *95:11 0.2825
15 *95:13 *95:12 0.5

*END

*D_NET *100 0.862154 //LENGTH 9.432 LUMPCC 0 DR

*CONN
*I *14:Y O *L 0 *C 6.216 10.472
*I *24:A I *L 0.582888 *C 6.672 9.256
*I *21:A4 I *L 0.601444 *C 8.496 9.104
*I *18:A3 I *L 0.634415 *C 8.040 11.080
*I *15:A2 I *L 0.466516 *C 6.520 12.600
*N *100:5 *C 6.520 12.599
*N *100:6 *C 6.520 11.384
*N *100:7 *C 6.368 11.384
*N *100:8 *C 8.039 11.080
*N *100:9 *C 8.496 9.104
*N *100:10 *C 8.496 9.244
*N *100:11 *C 8.482 9.256
*N *100:12 *C 6.672 9.074
*N *100:13 *C 6.672 9.244
*N *100:14 *C 6.686 9.256
*N *100:15 *C 7.584 9.256
*N *100:16 *C 7.584 9.560
*N *100:17 *C 7.875 9.560
*N *100:18 *C 7.888 9.574
*N *100:19 *C 7.888 11.080
*N *100:20 *C 7.875 11.080
*N *100:21 *C 6.381 11.080
*N *100:22 *C 6.368 11.094
*N *100:23 *C 6.216 11.080
*N *100:24 *C 6.216 10.486

*CAP
0 *14:Y 0.001
1 *24:A 0.001
2 *21:A4 0.001
3 *18:A3 0.001
4 *15:A2 0.001
5 *100:5 0.06665565
6 *100:6 0.07912681
7 *100:7 0.03180077
8 *100:8 0.005342521
9 *100:9 0.01345676
10 *100:10 0.01488944
11 *100:11 0.03867574
12 *100:12 0.01666021
13 *100:13 0.01048309
14 *100:14 0.04069199
15 *100:15 0.09632413
16 *100:16 0.03118136
17 *100:17 0.01659717
18 *100:18 0.07860621
19 *100:19 0.08775362
20 *100:20 0.05854121
21 *100:21 0.05854121
22 *100:22 0.02901685
23 *100:23 0.04752087
24 *100:24 0.03528847

*RES
0 *14:Y *100:24 1
1 *100:8 *18:A3 1
2 *100:18 *100:17 0.5
3 *100:17 *100:16 0.5187501
4 *100:10 *100:9 0.2325
5 *100:11 *100:10 0.5
6 *100:9 *21:A4 1
7 *100:13 *24:A 1
8 *100:13 *100:12 0.2825
9 *100:14 *100:13 0.5
10 *100:5 *15:A2 1
11 *100:19 *100:18 2.690179
12 *100:19 *100:8 0.2696429
13 *100:20 *100:19 0.5
14 *100:22 *100:21 0.5
15 *100:22 *100:7 0.5187501
16 *100:21 *100:20 2.666071
17 *100:24 *100:23 1.061607
18 *100:23 *100:22 0.2714286
19 *100:7 *100:6 0.2714286
20 *100:6 *100:5 2.169643
21 *100:15 *100:14 1.604464
22 *100:15 *100:11 1.604464
23 *100:16 *100:15 0.5428572

*END

*D_NET *2 1.612239 //LENGTH 19.191 LUMPCC 0 DR

*CONN
*P *2 I *L 0 *C 17.312 0.258
*I *16:A I *L 0.582888 *C 13.360 7.432
*I *11:A1 I *L 0.582918 *C 14.273 12.726
*N *2:3 *C 14.334 12.752
*N *2:4 *C 14.334 12.752
*N *2:5 *C 14.272 13.056
*N *2:6 *C 13.360 13.056
*N *2:7 *C 13.360 7.446
*N *2:8 *C 13.360 8.040
*N *2:9 *C 13.373 8.040
*N *2:10 *C 17.299 8.040
*N *2:11 *C 17.312 8.027

*CAP
0 *2 0.2634068
1 *16:A 0.001
2 *11:A1 0.0187841
3 *2:3 0.01255791
4 *2:4 0.02089619
5 *2:5 0.04984049
6 *2:6 0.3497081
7 *2:7 0.02938811
8 *2:8 0.3456042
9 *2:9 0.1300095
10 *2:10 0.1300095
11 *2:11 0.2610346

*RES
0 *2 *2:11 13.87232
1 *2:3 *11:A1 0.1916667
2 *2:4 *2:3 0.5
3 *2:7 *16:A 1
4 *2:8 *2:7 1.061607
5 *2:8 *2:6 8.957143
6 *2:9 *2:8 0.5
7 *2:11 *2:10 0.5
8 *2:10 *2:9 7.008929
9 *2:6 *2:5 1.628572
10 *2:5 *2:4 0.5428572

*END

*D_NET *91 0.3399333 //LENGTH 2.846 LUMPCC 0 DR

*CONN
*I *18:Y O *L 0 *C 8.800 10.472
*I *29:RSTB I *L 0.751197 *C 8.800 13.208
*N *91:2 *C 8.800 13.195
*N *91:3 *C 8.800 10.486

*CAP
0 *18:Y 0.001
1 *29:RSTB 0.001
2 *91:2 0.1689666
3 *91:3 0.1689666

*RES
0 *18:Y *91:3 1
1 *91:2 *29:RSTB 1
2 *91:3 *91:2 4.837501

*END

*D_NET *93 0.6191441 //LENGTH 5.544 LUMPCC 0 DR

*CONN
*I *10:Y O *L 0 *C 5.608 9.408
*I *13:A2 I *L 0.466516 *C 5.456 5.912
*I *14:A1 I *L 0.598231 *C 5.456 10.928
*N *93:3 *C 5.456 10.915
*N *93:4 *C 5.456 5.913
*N *93:5 *C 5.456 9.560
*N *93:6 *C 5.608 9.560
*N *93:7 *C 5.608 9.421

*CAP
0 *10:Y 0.001
1 *13:A2 0.001
2 *14:A1 0.001
3 *93:3 0.06123669
4 *93:4 0.2185667
5 *93:5 0.2950722
6 *93:6 0.02645265
7 *93:7 0.01481589

*RES
0 *10:Y *93:7 1
1 *93:7 *93:6 0.2473214
2 *93:3 *14:A1 1
3 *93:4 *13:A2 1
4 *93:5 *93:4 6.5125
5 *93:5 *93:3 2.41875
6 *93:6 *93:5 0.2714286

*END

*D_NET *96 0.3834298 //LENGTH 3.958 LUMPCC 0 DR

*CONN
*I *12:Y O *L 0 *C 7.572 9.104
*I *21:A3 I *L 0.634415 *C 8.800 8.952
*I *18:A1 I *L 0.53794 *C 7.432 10.776
*N *96:3 *C 7.432 10.763
*N *96:4 *C 8.800 8.770
*N *96:5 *C 8.800 8.940
*N *96:6 *C 8.787 8.952
*N *96:7 *C 7.446 8.952
*N *96:8 *C 7.432 8.965
*N *96:9 *C 7.432 9.117
*N *96:10 *C 7.445 9.104

*CAP
0 *12:Y 0.01877841
1 *21:A3 0.001
2 *18:A1 0.001
3 *96:3 0.0870973
4 *96:4 0.01742209
5 *96:5 0.01124498
6 *96:6 0.05648851
7 *96:7 0.05648851
8 *96:8 0.01300396
9 *96:9 0.104203
10 *96:10 0.01670302

*RES
0 *12:Y *96:10 0.2116667
1 *96:3 *18:A1 1
2 *96:10 *96:9 1
3 *96:9 *96:8 0.255
4 *96:9 *96:3 2.9375
5 *96:8 *96:7 0.5
6 *96:7 *96:6 2.394643
7 *96:5 *21:A3 1
8 *96:5 *96:4 0.2825
9 *96:6 *96:5 0.5

*END

*D_NET *99 0.7005125 //LENGTH 8.863 LUMPCC 0 DR

*CONN
*I *13:Y O *L 0 *C 5.800 5.760
*I *15:A1 I *L 0.549073 *C 6.368 12.296
*I *22:A I *L 0.582888 *C 6.976 5.912
*N *99:3 *C 6.976 5.926
*N *99:4 *C 6.976 6.203
*N *99:5 *C 6.963 6.216
*N *99:6 *C 6.368 12.295
*N *99:7 *C 6.368 11.702
*N *99:8 *C 6.356 11.688
*N *99:9 *C 6.216 11.688
*N *99:10 *C 6.216 11.675
*N *99:11 *C 6.216 6.230
*N *99:12 *C 6.230 6.216
*N *99:13 *C 6.216 6.203
*N *99:14 *C 6.216 5.774
*N *99:15 *C 6.201 5.760

*CAP
0 *13:Y 0.02862296
1 *15:A1 0.001
2 *22:A 0.001
3 *99:3 0.01410083
4 *99:4 0.01553351
5 *99:5 0.04250958
6 *99:6 0.04172088
7 *99:7 0.04315356
8 *99:8 0.008062874
9 *99:9 0.008063421
10 *99:10 0.1872482
11 *99:11 0.1872482
12 *99:12 0.04013791
13 *99:13 0.02763306
14 *99:14 0.02792988
15 *99:15 0.02654756

*RES
0 *13:Y *99:15 0.8020001
1 *99:4 *99:3 0.4946429
2 *99:5 *99:4 0.5
3 *99:3 *22:A 1
4 *99:12 *99:11 0.5
5 *99:12 *99:5 1.308929
6 *99:11 *99:10 9.723214
7 *99:9 *99:8 0.2325
8 *99:10 *99:9 0.5
9 *99:7 *99:6 1.059821
10 *99:8 *99:7 0.5
11 *99:6 *15:A1 1
12 *99:13 *99:12 0.5
13 *99:15 *99:14 1
14 *99:14 *99:13 0.7660714

*END

*D_NET *103 0.1729784 //LENGTH 2.002 LUMPCC 0 DR

*CONN
*I *24:Y O *L 0 *C 6.368 9.408
*I *25:A2 I *L 0.515513 *C 6.824 8.192
*N *103:2 *C 6.824 8.206
*N *103:3 *C 6.824 8.939
*N *103:4 *C 6.811 8.952
*N *103:5 *C 6.381 8.952
*N *103:6 *C 6.368 8.966
*N *103:7 *C 6.368 9.395

*CAP
0 *24:Y 0.001
1 *25:A2 0.001
2 *103:2 0.0407489
3 *103:3 0.04218158
4 *103:4 0.020991
5 *103:5 0.020991
6 *103:6 0.02374927
7 *103:7 0.0223166

*RES
0 *24:Y *103:7 1
1 *103:2 *25:A2 1
2 *103:3 *103:2 1.308929
3 *103:4 *103:3 0.5
4 *103:6 *103:5 0.5
5 *103:5 *103:4 0.7660714
6 *103:7 *103:6 0.7660715

*END

*D_NET *106 0.8961099 //LENGTH 8.856 LUMPCC 0 DR

*CONN
*I *26:Q O *L 0 *C 11.384 7.736
*I *25:A1 I *L 0.484201 *C 6.976 7.432
*I *12:A1 I *L 0.549073 *C 7.402 8.977
*N *106:3 *C 7.143 8.952
*N *106:4 *C 7.128 8.939
*N *106:5 *C 6.976 7.419
*N *106:6 *C 6.976 6.824
*N *106:7 *C 7.128 6.838
*N *106:8 *C 7.142 6.824
*N *106:9 *C 11.370 6.824
*N *106:10 *C 11.384 6.838
*N *106:11 *C 11.384 7.723

*CAP
0 *26:Q 0.001
1 *25:A1 0.001
2 *12:A1 0.02199258
3 *106:3 0.01991718
4 *106:4 0.1358897
5 *106:5 0.03938171
6 *106:6 0.05233693
7 *106:7 0.1447432
8 *106:8 0.1934048
9 *106:9 0.1934048
10 *106:10 0.04723587
11 *106:11 0.04580319

*RES
0 *26:Q *106:11 1
1 *106:3 *12:A1 0.5180001
2 *106:4 *106:3 1
3 *106:7 *106:6 0.2714286
4 *106:7 *106:4 3.751786
5 *106:8 *106:7 0.5
6 *106:10 *106:9 0.5
7 *106:9 *106:8 7.551786
8 *106:11 *106:10 1.580357
9 *106:5 *25:A1 1
10 *106:6 *106:5 1.061607

*END

*D_NET *4 1.188237 //LENGTH 13.031 LUMPCC 0 DR

*CONN
*P *4 I *L 0 *C 7.736 0.258
*I *13:A1 I *L 0.549073 *C 5.608 5.608
*I *14:A2 I *L 0.693299 *C 5.762 10.776
*N *4:3 *C 5.760 10.750
*N *4:4 *C 5.622 5.608
*N *4:5 *C 5.760 5.622
*N *4:6 *C 5.774 5.608
*N *4:7 *C 7.723 5.608
*N *4:8 *C 7.736 5.595

*CAP
0 *4 0.1926768
1 *13:A1 0.001
2 *14:A2 0.001
3 *4:3 0.3180443
4 *4:4 0.00525877
5 *4:5 0.3294054
6 *4:6 0.07527377
7 *4:7 0.07527377
8 *4:8 0.1903046

*RES
0 *4 *4:8 9.529465
1 *4:3 *14:A2 0.5
2 *4:5 *4:4 0.2473214
3 *4:5 *4:3 9.158036
4 *4:6 *4:5 0.5
5 *4:8 *4:7 0.5
6 *4:7 *4:6 3.480357
7 *4:4 *13:A1 1

*END

*D_NET *98 0.6670026 //LENGTH 6.410 LUMPCC 0 DR

*CONN
*I *20:Y O *L 0 *C 5.608 12.752
*I *21:A1 I *L 0.53794 *C 8.192 9.256
*N *98:2 *C 8.192 9.270
*N *98:3 *C 8.192 12.283
*N *98:4 *C 8.178 12.296
*N *98:5 *C 5.622 12.296
*N *98:6 *C 5.608 12.309
*N *98:7 *C 5.608 12.739

*CAP
0 *20:Y 0.001
1 *21:A1 0.001
2 *98:2 0.1820262
3 *98:3 0.1834589
4 *98:4 0.127132
5 *98:5 0.127132
6 *98:6 0.02334313
7 *98:7 0.02191046

*RES
0 *20:Y *98:7 1
1 *98:2 *21:A1 1
2 *98:3 *98:2 5.380358
3 *98:4 *98:3 0.5
4 *98:6 *98:5 0.5
5 *98:5 *98:4 4.566072
6 *98:7 *98:6 0.7660714

*END

*D_NET *101 1.776715 //LENGTH 16.490 LUMPCC 0 DR

*CONN
*I *11:Y O *L 0 *C 13.208 12.904
*I *23:A1 I *L 0.545966 *C 8.800 5.912
*I *12:A2 I *L 0.466516 *C 7.280 9.256
*I *25:A5 I *L 0.542358 *C 6.216 7.280
*N *101:4 *C 6.216 7.280
*N *101:5 *C 6.216 7.420
*N *101:6 *C 6.230 7.432
*N *101:7 *C 7.280 9.255
*N *101:8 *C 7.280 7.446
*N *101:9 *C 7.280 7.432
*N *101:10 *C 8.800 5.926
*N *101:11 *C 8.800 7.419
*N *101:12 *C 8.800 7.432
*N *101:13 *C 13.195 7.432
*N *101:14 *C 13.208 7.446
*N *101:15 *C 13.208 12.891

*CAP
0 *11:Y 0.001
1 *23:A1 0.001
2 *12:A2 0.001
3 *25:A5 0.001
4 *101:4 0.01265411
5 *101:5 0.01408679
6 *101:6 0.04570804
7 *101:7 0.1227353
8 *101:8 0.123995
9 *101:9 0.1159841
10 *101:10 0.1002385
11 *101:11 0.1016711
12 *101:12 0.2774512
13 *101:13 0.2071752
14 *101:14 0.3262243
15 *101:15 0.3247916

*RES
0 *11:Y *101:15 1
1 *101:14 *101:13 0.5
2 *101:13 *101:12 7.847322
3 *101:15 *101:14 9.723214
4 *101:11 *101:10 2.666071
5 *101:12 *101:11 0.5
6 *101:12 *101:9 2.714286
7 *101:10 *23:A1 1
8 *101:8 *101:7 3.23125
9 *101:9 *101:8 0.5
10 *101:9 *101:6 1.875893
11 *101:7 *12:A2 1
12 *101:5 *101:4 0.2325
13 *101:6 *101:5 0.5
14 *101:4 *25:A5 1

*END

*D_NET *105 0.4934791 //LENGTH 5.398 LUMPCC 0 DR

*CONN
*I *27:Q O *L 0 *C 14.576 8.952
*I *17:A1 I *L 0.610599 *C 13.968 10.776
*I *11:A2 I *L 0.697809 *C 13.970 12.752
*N *105:3 *C 13.968 12.726
*N *105:4 *C 13.968 11.081
*N *105:5 *C 13.969 11.080
*N *105:6 *C 14.272 11.080
*N *105:7 *C 13.968 10.594
*N *105:8 *C 13.968 10.764
*N *105:9 *C 13.982 10.776
*N *105:10 *C 14.272 10.776
*N *105:11 *C 14.562 10.776
*N *105:12 *C 14.576 10.763
*N *105:13 *C 14.576 8.966

*CAP
0 *27:Q 0.001
1 *17:A1 0.001
2 *11:A2 0.001
3 *105:3 0.07573203
4 *105:4 0.07802946
5 *105:5 0.01321209
6 *105:6 0.0279299
7 *105:7 0.01474731
8 *105:8 0.008570198
9 *105:9 0.01236245
10 *105:10 0.03933549
11 *105:11 0.009883008
12 *105:12 0.1060549
13 *105:13 0.1046222

*RES
0 *27:Q *105:13 1
1 *105:12 *105:11 0.5
2 *105:11 *105:10 0.5187501
3 *105:13 *105:12 3.208929
4 *105:4 *105:3 2.9375
5 *105:5 *105:4 0.5
6 *105:3 *11:A2 0.5
7 *105:8 *17:A1 1
8 *105:8 *105:7 0.2825
9 *105:9 *105:8 0.5
10 *105:10 *105:9 0.5187501
11 *105:10 *105:6 0.5428572
12 *105:6 *105:5 0.5410715

*END

*D_NET *3 0.454612 //LENGTH 6.427 LUMPCC 0 DR

*CONN
*P *3 I *L 0 *C 0.258 8.040
*I *10:A I *L 0.582888 *C 5.304 9.256
*N *3:2 *C 5.304 9.242
*N *3:3 *C 5.304 8.053
*N *3:4 *C 5.291 8.040

*CAP
0 *3 0.1535688
1 *10:A 0.001
2 *3:2 0.07370696
3 *3:3 0.07513964
4 *3:4 0.1511966

*RES
0 *3 *3:4 8.986609
1 *3:2 *10:A 1
2 *3:3 *3:2 2.123214
3 *3:4 *3:3 0.5

*END

*D_NET *94 0.563378 //LENGTH 4.543 LUMPCC 0 DR

*CONN
*I *16:Y O *L 0 *C 13.694 7.282
*I *17:A3 I *L 0.519105 *C 14.424 10.928
*N *94:2 *C 14.424 10.915
*N *94:3 *C 14.424 7.294
*N *94:4 *C 14.409 7.280

*CAP
0 *16:Y 0.04712274
1 *17:A3 0.001
2 *94:2 0.2342392
3 *94:3 0.2359687
4 *94:4 0.04504735

*RES
0 *16:Y *94:4 1.43
1 *94:2 *17:A3 1
2 *94:4 *94:3 1
3 *94:3 *94:2 6.466072

*END

*D_NET *97 1.159838 //LENGTH 12.273 LUMPCC 0 DR

*CONN
*I *17:Y O *L 0 *C 13.816 10.928
*I *21:A2 I *L 0.573758 *C 8.344 8.496
*I *19:A2 I *L 0.697809 *C 7.434 12.752
*I *18:A4 I *L 0.601444 *C 7.696 10.928
*N *97:4 *C 7.597 10.928
*N *97:5 *C 7.584 10.942
*N *97:6 *C 7.432 12.726
*N *97:7 *C 7.432 11.384
*N *97:8 *C 7.584 11.384
*N *97:9 *C 7.735 11.384
*N *97:10 *C 7.750 11.384
*N *97:11 *C 8.344 8.510
*N *97:12 *C 8.344 11.370
*N *97:13 *C 8.344 11.384
*N *97:14 *C 13.803 11.384
*N *97:15 *C 13.816 11.370
*N *97:16 *C 13.816 10.929

*CAP
0 *17:Y 0.001
1 *21:A2 0.001
2 *19:A2 0.001
3 *18:A4 0.01322616
4 *97:4 0.01115076
5 *97:5 0.03129133
6 *97:6 0.08581657
7 *97:7 0.09824722
8 *97:8 0.04897496
9 *97:9 0.005475017
10 *97:10 0.02490786
11 *97:11 0.1722808
12 *97:12 0.1737135
13 *97:13 0.2319869
14 *97:14 0.2047068
15 *97:15 0.02824644
16 *97:16 0.02681376

*RES
0 *17:Y *97:16 1
1 *97:15 *97:14 0.5
2 *97:14 *97:13 9.747323
3 *97:16 *97:15 0.7883928
4 *97:12 *97:11 5.108929
5 *97:13 *97:12 0.5
6 *97:13 *97:10 1.061607
7 *97:11 *21:A2 1
8 *97:9 *97:8 0.2696429
9 *97:10 *97:9 0.5
10 *97:4 *18:A4 0.1658334
11 *97:5 *97:4 1
12 *97:6 *19:A2 0.5
13 *97:7 *97:6 2.396429
14 *97:8 *97:7 0.2714286
15 *97:8 *97:5 0.7901787

*END

*D_NET *102 0.4565288 //LENGTH 4.690 LUMPCC 0 DR

*CONN
*I *22:Y O *L 0 *C 7.280 6.064
*I *23:A2 I *L 0.509119 *C 8.648 5.608
*I *25:A4 I *L 0.514778 *C 6.672 7.584
*N *102:3 *C 6.672 7.571
*N *102:4 *C 6.672 6.534
*N *102:5 *C 6.686 6.520
*N *102:6 *C 7.280 6.520
*N *102:7 *C 8.648 5.622
*N *102:8 *C 8.648 6.203
*N *102:9 *C 8.635 6.216
*N *102:10 *C 7.280 6.216
*N *102:11 *C 7.280 6.204
*N *102:12 *C 7.280 6.064

*CAP
0 *22:Y 0.001
1 *23:A2 0.001
2 *25:A4 0.001
3 *102:3 0.05268464
4 *102:4 0.05411732
5 *102:5 0.03009437
6 *102:6 0.04438323
7 *102:7 0.0390311
8 *102:8 0.04046378
9 *102:9 0.08164206
10 *102:10 0.0935587
11 *102:11 0.009493124
12 *102:12 0.008060446

*RES
0 *22:Y *102:12 1
1 *102:8 *102:7 1.0375
2 *102:9 *102:8 0.5
3 *102:7 *23:A2 1
4 *102:11 *102:10 0.5
5 *102:10 *102:9 2.41875
6 *102:10 *102:6 0.5428572
7 *102:12 *102:11 0.2325
8 *102:4 *102:3 1.851786
9 *102:5 *102:4 0.5
10 *102:3 *25:A4 1
11 *102:6 *102:5 1.061607

*END

*D_NET *104 1.661537 //LENGTH 16.898 LUMPCC 0 DR

*CONN
*I *26:QN O *L 0 *C 11.232 7.128
*I *25:A3 I *L 0.539281 *C 6.368 7.736
*I *17:A2 I *L 0.55521 *C 14.120 10.928
*I *23:A3 I *L 0.456834 *C 8.496 5.912
*N *104:4 *C 11.232 6.946
*N *104:5 *C 8.496 5.926
*N *104:6 *C 8.496 7.115
*N *104:7 *C 8.510 7.128
*N *104:8 *C 14.134 10.928
*N *104:9 *C 14.272 10.928
*N *104:10 *C 14.272 7.750
*N *104:11 *C 14.259 7.736
*N *104:12 *C 6.368 7.554
*N *104:13 *C 6.368 7.724
*N *104:14 *C 6.381 7.736
*N *104:15 *C 10.928 7.736
*N *104:16 *C 10.928 7.723
*N *104:17 *C 10.928 7.142
*N *104:18 *C 10.928 7.128
*N *104:19 *C 11.219 7.128
*N *104:20 *C 11.232 7.115

*CAP
0 *26:QN 0.001
1 *25:A3 0.001
2 *17:A2 0.001
3 *23:A3 0.001
4 *104:4 0.01715514
5 *104:5 0.06430499
6 *104:6 0.06573767
7 *104:7 0.120767
8 *104:8 0.006001434
9 *104:9 0.204508
10 *104:10 0.1923294
11 *104:11 0.1445244
12 *104:12 0.0157259
13 *104:13 0.009548783
14 *104:14 0.2090811
15 *104:15 0.3559777
16 *104:16 0.04378852
17 *104:17 0.04378852
18 *104:18 0.1382301
19 *104:19 0.01509092
20 *104:20 0.01097802

*RES
0 *26:QN *104:20 1
1 *104:10 *104:9 5.675893
2 *104:11 *104:10 0.5
3 *104:8 *17:A2 1
4 *104:20 *104:19 0.5
5 *104:20 *104:4 0.2825
6 *104:19 *104:18 0.5187501
7 *104:16 *104:15 0.5
8 *104:15 *104:14 8.118751
9 *104:15 *104:11 5.947322
10 *104:17 *104:16 1.0375
11 *104:18 *104:17 0.5
12 *104:18 *104:7 4.31875
13 *104:6 *104:5 2.123214
14 *104:7 *104:6 0.5
15 *104:5 *23:A3 1
16 *104:13 *25:A3 1
17 *104:13 *104:12 0.2825
18 *104:14 *104:13 0.5
19 *104:9 *104:8 0.2473214

*END

